NAME : sim33.62385.tour
COMMENT : Length = 62385
COMMENT : Found by LKH [Keld Helsgaun] Sun Sep 16 15:44:06 2018
TYPE : TOUR
DIMENSION : 33
TOUR_SECTION
1
5
17
8
3
7
21
22
23
29
33
28
31
16
11
6
13
32
4
25
26
2
9
10
27
20
18
12
14
19
15
24
30
-1
EOF
